This is Ipopt version 3.13.4, running with linear solver mumps.
NOTE: Other linear solvers might be more efficient (see Ipopt documentation).

Number of nonzeros in equality constraint Jacobian...:      611
Number of nonzeros in inequality constraint Jacobian.:        0
Number of nonzeros in Lagrangian Hessian.............:        0

Total number of variables............................:       47
                     variables with only lower bounds:        0
                variables with lower and upper bounds:       47
                     variables with only upper bounds:        0
Total number of equality constraints.................:       13
Total number of inequality constraints...............:        0
        inequality constraints with only lower bounds:        0
   inequality constraints with lower and upper bounds:        0
        inequality constraints with only upper bounds:        0

iter    objective    inf_pr   inf_du lg(mu)  ||d||  lg(rg) alpha_du alpha_pr  ls
   0  1.0211926e+00 6.08e-02 1.10e-02   0.0 0.00e+00    -  0.00e+00 0.00e+00   0
   1  1.0196497e+00 1.57e-01 2.49e+02  -1.1 3.49e-01    -  7.36e-01 3.40e-01f  1
   2  1.0187450e+00 1.66e-01 1.17e+03   0.3 2.55e+00    -  1.00e+00 3.66e-02f  1
   3  1.0172967e+00 1.12e-01 2.14e+03  -0.3 1.33e-01    -  1.00e+00 5.56e-01h  1
   4  1.0170491e+00 1.14e-01 1.24e+03   0.1 5.64e-01    -  1.00e+00 2.03e-01f  1
   5  1.0171079e+00 1.73e-02 6.67e+03  -0.5 5.93e-01    -  1.00e+00 1.00e+00h  1
   6  1.0173897e+00 3.98e-02 2.24e+03  -1.1 3.79e-01    -  1.00e+00 1.00e+00h  1
   7  1.0174853e+00 5.95e-03 3.87e+03  -7.1 1.09e-01    -  4.41e-01 3.71e-01h  2
   8  1.0180696e+00 3.04e-03 2.52e+03  -1.5 4.04e-02    -  8.14e-01 8.12e-01H  1
   9  1.0180533e+00 6.50e-05 5.99e+02  -2.3 7.07e-03    -  1.00e+00 1.00e+00h  1
iter    objective    inf_pr   inf_du lg(mu)  ||d||  lg(rg) alpha_du alpha_pr  ls
  10  1.0180513e+00 3.81e-05 2.95e+00  -3.8 4.16e-03    -  1.00e+00 1.00e+00h  1
  11  1.0180366e+00 1.88e-04 1.57e-01  -5.1 1.06e-02    -  9.24e-01 1.00e+00h  1
  12  1.0172887e+00 6.01e-02 2.18e+00  -4.5 5.76e-01    -  1.00e+00 1.00e+00h  1
  13  1.0170687e+00 1.04e-01 1.91e+00  -4.5 5.83e-01    -  9.59e-01 1.00e+00h  1
  14  1.0170895e+00 1.54e-02 1.66e+00  -4.3 2.80e-01    -  1.00e+00 1.00e+00h  1
  15  1.0172280e+00 1.06e-02 1.15e+00  -4.4 3.94e-01    -  1.00e+00 2.10e-01h  3
  16  1.0174358e+00 7.53e-03 1.16e+00  -4.9 3.03e-01    -  4.91e-01 1.00e+00h  1
  17  1.0172769e+00 3.90e-02 1.31e+00  -4.9 4.38e-01    -  1.00e+00 1.00e+00h  1
  18  1.0166312e+00 6.18e-02 1.92e+00  -5.0 6.28e-01    -  5.26e-01 2.54e-01h  1
  19  1.0169610e+00 4.85e-02 2.23e+00  -3.6 2.26e+00    -  1.00e+00 1.78e-01f  1
iter    objective    inf_pr   inf_du lg(mu)  ||d||  lg(rg) alpha_du alpha_pr  ls
  20  1.0169570e+00 3.94e-02 1.56e+00  -3.7 6.08e-01    -  1.00e+00 2.06e-01h  1
  21  1.0176064e+00 3.13e-02 2.84e+00  -3.7 3.38e-01    -  8.62e-01 1.00e+00h  1
  22  1.0179897e+00 1.47e-01 6.06e+00  -3.7 4.58e-01    -  4.06e-01 3.88e-01H  1
  23  1.0179614e+00 1.31e-01 4.58e+00  -3.7 1.98e-01    -  1.00e+00 1.56e-01h  3
  24  1.0166113e+00 1.54e-01 6.36e+00  -3.7 9.69e-01    -  9.23e-01 9.67e-01h  1
  25  1.0169005e+00 6.05e-02 2.92e+00  -3.7 7.36e-01    -  1.00e+00 5.29e-01f  1
  26  1.0167606e+00 4.34e-02 3.43e+00  -3.8 9.72e-01    -  7.38e-01 1.00e+00h  1
  27  1.0162898e+00 8.06e-02 1.91e+00  -3.8 9.54e-01    -  1.00e+00 1.00e+00h  1
  28  1.0132646e+00 9.58e-02 2.27e+00  -3.2 1.64e+00    -  1.00e+00 4.86e-01h  1
  29  1.0122220e+00 2.38e-01 2.29e+00  -3.0 2.61e+00    -  1.00e+00 1.00e+00h  1
iter    objective    inf_pr   inf_du lg(mu)  ||d||  lg(rg) alpha_du alpha_pr  ls
  30  1.0104284e+00 6.49e-01 3.58e+00  -2.8 2.79e+00    -  1.00e+00 1.00e+00h  1
  31  1.0104685e+00 6.51e-01 9.21e-01  -8.8 5.54e+01    -  2.40e-02 6.58e-03h  1
  32  1.0095474e+00 7.25e-01 2.42e+02  -1.1 1.33e+02    -  9.07e-01 1.31e-02f  1
  33  1.0095867e+00 7.49e-01 3.87e+01  -1.8 5.65e+00    -  2.94e-01 2.86e-01h  2
  34  1.0103543e+00 3.83e-01 2.63e+01  -1.6 4.92e+00    -  6.05e-01 6.90e-01h  1
  35  1.0098827e+00 3.19e-01 1.84e+01  -0.8 2.81e+00    -  1.00e+00 5.92e-01f  1
  36  1.0091949e+00 2.84e-01 4.00e+01  -0.5 2.68e+00    -  1.00e+00 7.94e-01f  1
  37  1.0099235e+00 1.95e-01 4.66e+01  -0.7 5.88e+00    -  1.00e+00 7.58e-01f  1
  38  1.0129492e+00 1.89e-01 3.04e+02  -0.4 2.51e+00    -  8.41e-01 5.01e-01H  1
  39  1.0130151e+00 1.62e-01 1.44e+02  -0.8 1.51e+00    -  1.00e+00 1.00e+00f  1
iter    objective    inf_pr   inf_du lg(mu)  ||d||  lg(rg) alpha_du alpha_pr  ls
  40  1.0128231e+00 1.18e-01 1.22e+02  -0.3 1.23e+01    -  1.00e+00 3.30e-01h  1
  41  1.0123228e+00 1.33e-01 2.60e+02  -0.1 3.49e+00    -  1.00e+00 2.90e-01f  2
  42  1.0128807e+00 1.34e-01 6.96e+02   0.2 2.41e+00    -  6.49e-01 3.82e-01H  1
  43  1.0133007e+00 1.66e-01 1.73e+03   0.0 5.21e+00    -  1.00e+00 8.51e-01f  1
  44  1.0141821e+00 2.07e-01 1.38e+03  -0.1 2.25e+00    -  8.45e-01 1.00e+00h  1
  45  1.0122613e+00 2.13e-01 9.26e+03   0.4 4.67e+00    -  1.00e+00 1.00e+00f  1
  46  1.0134286e+00 2.89e-01 2.69e+03   0.3 3.85e+00    -  4.47e-01 8.69e-01h  1
  47  1.0149560e+00 1.42e-01 6.56e+03   0.3 2.11e+00    -  3.18e-01 4.21e-01H  1
  48  1.0165584e+00 1.34e-01 2.98e+04  -0.1 1.08e+00    -  1.00e+00 1.00e+00f  1
  49  1.0166961e+00 2.59e-01 4.88e+03  -0.1 6.04e-01    -  7.28e-01 7.49e-01f  1
iter    objective    inf_pr   inf_du lg(mu)  ||d||  lg(rg) alpha_du alpha_pr  ls
  50  1.0156201e+00 1.78e-01 9.36e+02  -0.1 1.90e+00    -  6.75e-01 7.23e-01f  1

Number of Iterations....: 50

                                   (scaled)                 (unscaled)
Objective...............:   1.0156200909040116e+00    1.0156200909040116e+00
Dual infeasibility......:   9.3630140335816782e+02    9.3630140335816782e+02
Constraint violation....:   5.0527183568034539e-02    1.7773853071580478e-01
Complementarity.........:   7.3244718805067111e-01    7.3244718805067111e-01
Overall NLP error.......:   9.3630140335816782e+02    9.3630140335816782e+02


Number of objective function evaluations             = 73
Number of objective gradient evaluations             = 51
Number of equality constraint evaluations            = 73
Number of inequality constraint evaluations          = 0
Number of equality constraint Jacobian evaluations   = 51
Number of inequality constraint Jacobian evaluations = 0
Number of Lagrangian Hessian evaluations             = 0
Total CPU secs in IPOPT (w/o function evaluations)   =      3.352
Total CPU secs in NLP function evaluations           =    227.638

EXIT: Maximum Number of Iterations Exceeded.
